NAME : inputtest
COMMENT : 29 locations in Western Sahara
COMMENT : Derived from National Imagery and Mapping Agency data
TYPE : TSP
DIMENSION : 4
EDGE_WEIGHT_TYPE : EUC_2D
NODE_COORD_SECTION
1 10 10
2 20 10
3 20 20
4 10 20
EOF